200,161
735,300
721,326
745,207
850,283
753,354
699,524
778,476
826,511
1214,490
1166,563
937,323
826,301
921,284
742,791
505,648
296,345
598,150
1161,406
1020,745
694,380
657,389
629,478
584,476
609,458
